experiment/data/hgs-res/Vrp-Set-B-n38/Vrp-Set-B-n38-hgs/0.hgs1.vrp
NAME : 0
COMMENT : CVRP Instance
TYPE : CVRP
DIMENSION : 38
EDGE_WEIGHT_TYPE : EUC_2D
CAPACITY : 100
NODE_COORD_SECTION
1	64.0	75.0
2	16.0	97.0
3	2.0	79.0
4	28.0	79.0
5	16.0	3.0
6	39.0	20.0
7	35.0	65.0
8	43.0	21.0
9	44.0	0.0
10	37.0	67.0
11	17.0	100.0
12	34.0	80.0
13	45.0	7.0
14	11.0	83.0
15	35.0	88.0
16	21.0	98.0
17	41.0	72.0
18	51.0	0.0
19	17.0	9.0
20	36.0	66.0
21	20.0	105.0
22	35.0	85.0
23	37.0	75.0
24	17.0	11.0
25	46.0	6.0
26	40.0	23.0
27	43.0	73.0
28	40.0	21.0
29	29.0	85.0
30	45.0	6.0
31	0.0	24.0
32	42.0	66.0
33	30.0	81.0
34	17.0	9.0
35	46.0	4.0
36	0.0	85.0
37	51.0	2.0
38	5.0	80.0
DEMAND_SECTION
1	0
2	18
3	10
4	16
5	12
6	21
7	23
8	15
9	25
10	3
11	6
12	7
13	4
14	20
15	25
16	20
17	12
18	3
19	12
20	14
21	26
22	9
23	22
24	20
25	9
26	13
27	21
28	10
29	8
30	5
31	14
32	7
33	21
34	20
35	1
36	21
37	17
38	2
DEPOT_SECTION
1
-1
EOF
