experiment/data/hgs-res/Vrp-Set-B-n38/Vrp-Set-B-n38-hgs/0.hgs1.log
=========== Algorithm Parameters =================
---- nbGranular        is set to 20
---- mu                is set to 25
---- lambda            is set to 40
---- nbElite           is set to 4
---- nbClose           is set to 5
---- targetFeasible    is set to 0.2
---- seed              is set to 1234
---- nbIter            is set to 20000
---- timeLimit         is set to 0
---- useSwapStar       is set to 1
==================================================
----- READING INSTANCE: baseline_results/cvrp_hgs/Vrp-Set-B-n38/Vrp-Set-B-n38-hgs/0.hgs1.vrp
----- FLEET SIZE WAS NOT SPECIFIED: DEFAULT INITIALIZATION TO 10 VEHICLES
----- INSTANCE SUCCESSFULLY LOADED WITH 37 CLIENTS AND 10 VEHICLES
----- BUILDING INITIAL POPULATION
----- STARTING GENETIC ALGORITHM
It      0      2 | T(s) 0.05 | Feas 15 818.81 825.42 | Inf 48 752.57 754.60 | Div 0.28 0.20 | Feas 0.12 1.00 | Pen 5.05 0.85
It    500    106 | T(s) 0.19 | Feas 52 808.70 818.65 | Inf 39 752.67 758.59 | Div 0.23 0.28 | Feas 0.13 1.00 | Pen 5.15 0.38
It   1000    606 | T(s) 0.29 | Feas 50 808.70 816.85 | Inf 28 753.83 764.41 | Div 0.23 0.33 | Feas 0.15 1.00 | Pen 6.31 0.17
It   1500   1106 | T(s) 0.39 | Feas 51 808.70 814.44 | Inf 40 752.88 755.63 | Div 0.28 0.22 | Feas 0.18 1.00 | Pen 5.36 0.10
It   2000   1606 | T(s) 0.50 | Feas 26 808.70 818.09 | Inf 40 752.99 756.22 | Div 0.45 0.24 | Feas 0.28 1.00 | Pen 5.47 0.10
It   2500   2106 | T(s) 0.61 | Feas 44 808.70 812.77 | Inf 40 754.21 757.14 | Div 0.32 0.23 | Feas 0.14 1.00 | Pen 6.69 0.10
It   3000   2606 | T(s) 0.71 | Feas 49 808.70 813.23 | Inf 54 753.44 755.53 | Div 0.32 0.19 | Feas 0.12 1.00 | Pen 5.92 0.10
It   3500    277 | T(s) 0.82 | Feas 62 807.88 808.95 | Inf 59 752.75 754.58 | Div 0.15 0.18 | Feas 0.39 1.00 | Pen 5.24 0.10
It   4000    777 | T(s) 0.92 | Feas 38 807.88 811.02 | Inf 55 754.05 756.25 | Div 0.30 0.18 | Feas 0.08 1.00 | Pen 6.54 0.10
It   4500   1277 | T(s) 1.03 | Feas 38 807.88 811.31 | Inf 28 753.18 759.49 | Div 0.32 0.32 | Feas 0.26 1.00 | Pen 5.67 0.10
It   5000   1777 | T(s) 1.13 | Feas 39 807.88 809.95 | Inf 41 753.41 755.57 | Div 0.28 0.21 | Feas 0.23 1.00 | Pen 5.90 0.10
It   5500   2277 | T(s) 1.24 | Feas 44 807.88 809.53 | Inf 49 752.73 755.12 | Div 0.23 0.21 | Feas 0.34 1.00 | Pen 5.21 0.10
It   6000   2777 | T(s) 1.34 | Feas 28 807.88 812.16 | Inf 38 752.94 756.63 | Div 0.37 0.24 | Feas 0.32 1.00 | Pen 5.42 0.10
It   6500   3277 | T(s) 1.44 | Feas 32 807.88 810.88 | Inf 45 753.16 754.77 | Div 0.32 0.18 | Feas 0.39 1.00 | Pen 5.64 0.10
It   7000   3777 | T(s) 1.54 | Feas 49 807.88 810.59 | Inf 38 753.16 755.81 | Div 0.28 0.23 | Feas 0.20 1.00 | Pen 5.64 0.10
It   7500   4277 | T(s) 1.65 | Feas 34 807.88 810.50 | Inf 64 751.07 753.35 | Div 0.30 0.13 | Feas 0.26 1.00 | Pen 4.89 0.10
It   8000   4777 | T(s) 1.75 | Feas 41 807.88 811.42 | Inf 31 753.63 759.66 | Div 0.32 0.29 | Feas 0.12 1.00 | Pen 6.11 0.10
It   8500   5277 | T(s) 1.85 | Feas 42 807.88 809.74 | Inf 44 752.92 754.30 | Div 0.27 0.16 | Feas 0.32 1.00 | Pen 5.40 0.10
It   9000   5777 | T(s) 1.96 | Feas 29 807.88 812.69 | Inf 25 753.14 763.16 | Div 0.38 0.35 | Feas 0.29 1.00 | Pen 5.62 0.10
It   9500   6277 | T(s) 2.06 | Feas 57 807.88 809.34 | Inf 51 752.00 754.37 | Div 0.22 0.19 | Feas 0.27 1.00 | Pen 4.97 0.10
It  10000   6777 | T(s) 2.17 | Feas 41 807.88 812.68 | Inf 39 753.72 756.68 | Div 0.34 0.23 | Feas 0.12 1.00 | Pen 6.21 0.10
It  10500   7277 | T(s) 2.27 | Feas 45 807.88 809.05 | Inf 47 753.00 755.28 | Div 0.18 0.20 | Feas 0.37 1.00 | Pen 5.49 0.10
It  11000   7777 | T(s) 2.38 | Feas 31 807.88 812.75 | Inf 33 754.23 758.50 | Div 0.39 0.27 | Feas 0.15 1.00 | Pen 6.72 0.10
It  11500   8277 | T(s) 2.48 | Feas 33 807.88 813.12 | Inf 50 753.46 757.45 | Div 0.38 0.23 | Feas 0.08 1.00 | Pen 5.94 0.10
It  12000   8777 | T(s) 2.59 | Feas 37 807.88 810.55 | Inf 64 752.77 753.92 | Div 0.30 0.13 | Feas 0.30 1.00 | Pen 5.25 0.10
It  12500   9277 | T(s) 2.69 | Feas 62 807.88 809.87 | Inf 56 754.08 755.65 | Div 0.26 0.16 | Feas 0.15 1.00 | Pen 6.56 0.10
It  13000   9777 | T(s) 2.80 | Feas 61 807.88 809.53 | Inf 27 752.35 758.78 | Div 0.23 0.32 | Feas 0.29 1.00 | Pen 4.83 0.10
It  13500  10277 | T(s) 2.90 | Feas 49 807.88 809.99 | Inf 55 752.55 753.92 | Div 0.26 0.17 | Feas 0.33 1.00 | Pen 5.03 0.10
It  14000  10777 | T(s) 3.01 | Feas 62 807.88 809.61 | Inf 58 753.80 755.32 | Div 0.25 0.16 | Feas 0.08 1.00 | Pen 6.28 0.10
It  14500  11277 | T(s) 3.11 | Feas 65 807.88 809.01 | Inf 28 753.07 760.91 | Div 0.19 0.33 | Feas 0.33 1.00 | Pen 5.55 0.10
It  15000  11777 | T(s) 3.21 | Feas 56 807.88 809.48 | Inf 50 752.33 754.74 | Div 0.25 0.21 | Feas 0.28 1.00 | Pen 4.81 0.10
It  15500  12277 | T(s) 3.32 | Feas 38 807.88 812.39 | Inf 43 753.41 756.48 | Div 0.36 0.22 | Feas 0.08 1.00 | Pen 5.89 0.10
It  16000  12777 | T(s) 3.42 | Feas 45 807.88 809.23 | Inf 50 752.73 753.87 | Div 0.22 0.15 | Feas 0.32 1.00 | Pen 5.21 0.10
It  16500  13277 | T(s) 3.53 | Feas 49 807.88 809.23 | Inf 65 752.94 754.02 | Div 0.23 0.14 | Feas 0.37 1.00 | Pen 5.42 0.10
It  17000  13777 | T(s) 3.63 | Feas 31 807.88 812.44 | Inf 53 753.16 754.74 | Div 0.39 0.15 | Feas 0.17 1.00 | Pen 5.64 0.10
It  17500  14277 | T(s) 3.73 | Feas 37 807.88 810.68 | Inf 62 752.21 753.40 | Div 0.31 0.14 | Feas 0.30 1.00 | Pen 4.99 0.10
It  18000  14777 | T(s) 3.84 | Feas 53 807.88 810.99 | Inf 62 753.74 755.25 | Div 0.31 0.16 | Feas 0.13 1.00 | Pen 6.23 0.10
It  18500  15277 | T(s) 3.95 | Feas 48 807.88 809.83 | Inf 38 753.02 756.65 | Div 0.27 0.25 | Feas 0.31 1.00 | Pen 5.51 0.10
It  19000  15777 | T(s) 4.05 | Feas 25 807.88 814.15 | Inf 33 753.25 759.11 | Div 0.42 0.29 | Feas 0.04 1.00 | Pen 5.73 0.10
It  19500  16277 | T(s) 4.16 | Feas 54 807.88 809.50 | Inf 59 753.48 754.64 | Div 0.24 0.15 | Feas 0.10 1.00 | Pen 5.96 0.10
It  20000  16777 | T(s) 4.26 | Feas 33 807.88 810.91 | Inf 54 753.72 754.93 | Div 0.33 0.13 | Feas 0.24 1.00 | Pen 6.20 0.10
It  20500  17277 | T(s) 4.37 | Feas 26 807.88 813.82 | Inf 31 753.00 757.61 | Div 0.42 0.28 | Feas 0.29 1.00 | Pen 5.48 0.10
It  21000  17777 | T(s) 4.47 | Feas 37 807.88 810.91 | Inf 33 752.37 757.24 | Div 0.32 0.27 | Feas 0.40 1.00 | Pen 4.85 0.10
It  21500  18277 | T(s) 4.57 | Feas 27 807.88 812.40 | Inf 63 752.56 753.86 | Div 0.39 0.15 | Feas 0.33 1.00 | Pen 5.05 0.10
It  22000  18777 | T(s) 4.68 | Feas 41 807.88 810.46 | Inf 62 753.82 755.19 | Div 0.31 0.15 | Feas 0.06 1.00 | Pen 6.30 0.10
It  22500  19277 | T(s) 4.79 | Feas 49 807.88 809.66 | Inf 25 754.07 763.73 | Div 0.25 0.34 | Feas 0.12 1.00 | Pen 6.55 0.10
It  23000  19777 | T(s) 4.89 | Feas 41 807.88 810.74 | Inf 43 753.09 755.32 | Div 0.32 0.21 | Feas 0.25 1.00 | Pen 5.57 0.10
----- GENETIC ALGORITHM FINISHED AFTER 23225 ITERATIONS. TIME SPENT: 4.93435
----- WRITING BEST SOLUTION IN : baseline_results/cvrp_hgs/Vrp-Set-B-n38/Vrp-Set-B-n38-hgs/0.hgs1.tour
