experiment/data/hgs-res/Vrp-Set-B-n38/Vrp-Set-B-n38-hgs/0.hgs1.tour
Route #1: 21 28 13 37 35 2 30 19
Route #2: 22 11 32 3 6 9 31
Route #3: 16 26
Route #4: 23 18 33 4 5 27
Route #5: 36 17 8 34 24 29 12 7 25
Route #6: 14 15 1 10 20
Cost 807.879
